set J:=j1, j2, j3, j4;

set I:=i1, i2, i3, i4;

param p:= 2;

param h:= i1 25.000 i2 25.000 i3 25.000 i4 25.000;

param d:  j1    j2    j3    j4     :=
i1      0.000 2.000 2.828 2.000
i2      2.000 0.000 2.000 2.828
i3      2.828 2.000 0.000 2.000
i4      2.000 2.828 2.000 0.000;
